800 800
415.00 400.00
415.00 415.00
400.00 415.00
385.00 415.00
385.00 400.00
385.00 385.00
400.00 385.00
415.00 385.00
430.00 385.00
430.00 400.00
430.00 415.00
430.00 430.00
415.00 430.00
400.00 430.00
385.00 430.00
370.00 430.00
370.00 415.00
370.00 400.00
370.00 385.00
370.00 370.00
385.00 370.00
400.00 370.00
415.00 370.00
430.00 370.00
445.00 370.00
445.00 385.00
445.00 400.00
445.00 415.00
445.00 430.00
445.00 445.00
430.00 445.00
415.00 445.00
400.00 445.00
385.00 445.00
370.00 445.00
355.00 445.00
355.00 430.00
355.00 415.00
355.00 400.00
355.00 385.00
355.00 370.00
355.00 355.00
370.00 355.00
385.00 355.00
400.00 355.00
415.00 355.00
430.00 355.00
445.00 355.00
460.00 355.00
460.00 370.00
460.00 385.00
460.00 400.00
460.00 415.00
460.00 430.00
460.00 445.00
460.00 460.00
445.00 460.00
430.00 460.00
415.00 460.00
400.00 460.00
385.00 460.00
370.00 460.00
355.00 460.00
340.00 460.00
340.00 445.00
340.00 430.00
340.00 415.00
340.00 400.00
340.00 385.00
340.00 370.00
340.00 355.00
340.00 340.00
355.00 340.00
370.00 340.00
385.00 340.00
400.00 340.00
415.00 340.00
430.00 340.00
445.00 340.00
460.00 340.00
475.00 340.00
475.00 355.00
475.00 370.00
475.00 385.00
475.00 400.00
475.00 415.00
475.00 430.00
475.00 445.00
475.00 460.00
475.00 475.00
460.00 475.00
445.00 475.00
430.00 475.00
415.00 475.00
400.00 475.00
385.00 475.00
370.00 475.00
355.00 475.00
340.00 475.00
325.00 475.00
325.00 460.00
325.00 445.00
325.00 430.00
325.00 415.00
325.00 400.00
325.00 385.00
325.00 370.00
325.00 355.00
325.00 340.00
325.00 325.00
340.00 325.00
355.00 325.00
370.00 325.00
385.00 325.00
400.00 325.00
415.00 325.00
430.00 325.00
445.00 325.00
460.00 325.00
475.00 325.00
490.00 325.00
490.00 340.00
490.00 355.00
490.00 370.00
490.00 385.00
490.00 400.00
490.00 415.00
490.00 430.00
490.00 445.00
490.00 460.00
490.00 475.00
490.00 490.00
475.00 490.00
460.00 490.00
445.00 490.00
430.00 490.00
415.00 490.00
400.00 490.00
385.00 490.00
370.00 490.00
355.00 490.00
340.00 490.00
325.00 490.00
310.00 490.00
310.00 475.00
310.00 460.00
310.00 445.00
310.00 430.00
310.00 415.00
310.00 400.00
